Set parameter TSPort to value 51199
Set parameter TokenServer to value "open-license1.lanl.gov"
Set parameter TimeLimit to value 8192
Set parameter Threads to value 1
Gurobi Optimizer version 10.0.3 build v10.0.3rc0 (linux64)

CPU model: Intel(R) Xeon(R) CPU E5-2695 v4 @ 2.10GHz, instruction set [SSE2|AVX|AVX2]
Thread count: 36 physical cores, 72 logical processors, using up to 1 threads

Optimize a model with 75840 rows, 30667 columns and 176960 nonzeros
Model fingerprint: 0x0445240a
Variable types: 0 continuous, 30667 integer (30667 binary)
Coefficient statistics:
  Matrix range     [1e+00, 1e+00]
  Objective range  [2e+00, 3e+01]
  Bounds range     [1e+00, 1e+00]
  RHS range        [1e+00, 1e+00]
Found heuristic solution: objective -20944.00000
Presolve removed 46673 rows and 2 columns
Presolve time: 0.40s
Presolved: 29167 rows, 30665 columns, 79725 nonzeros
Variable types: 0 continuous, 30665 integer (30665 binary)
Found heuristic solution: objective -30240.00000

Root relaxation: objective -4.735500e+04, 15146 iterations, 0.36 seconds (0.17 work units)

    Nodes    |    Current Node    |     Objective Bounds      |     Work
 Expl Unexpl |  Obj  Depth IntInf | Incumbent    BestBd   Gap | It/Node Time

     0     0 -47355.000    0 9274 -30240.000 -47355.000  56.6%     -    1s
H    0     0                    -31780.00000 -47355.000  49.0%     -    1s
     0     0 -45110.000    0 9788 -31780.000 -45110.000  41.9%     -    2s
H    0     0                    -31836.00000 -45110.000  41.7%     -    2s
     0     0 -43929.500    0 10532 -31836.000 -43929.500  38.0%     -    3s
     0     0 -43586.667    0 10736 -31836.000 -43586.667  36.9%     -    3s
     0     0 -43545.000    0 10754 -31836.000 -43545.000  36.8%     -    4s
     0     0 -43541.500    0 10752 -31836.000 -43541.500  36.8%     -    4s
     0     0 -42926.667    0 10959 -31836.000 -42926.667  34.8%     -    5s
H    0     0                    -31846.00000 -42926.667  34.8%     -    5s
     0     0 -42833.167    0 11037 -31846.000 -42833.167  34.5%     -    6s
     0     0 -42814.883    0 11073 -31846.000 -42814.883  34.4%     -    6s
     0     0 -42812.083    0 11095 -31846.000 -42812.083  34.4%     -    6s
     0     0 -42061.750    0 11491 -31846.000 -42061.750  32.1%     -   10s
     0     0 -41794.923    0 11867 -31846.000 -41794.923  31.2%     -   15s
     0     0 -41747.022    0 11888 -31846.000 -41747.022  31.1%     -   18s
     0     0 -41737.653    0 11980 -31846.000 -41737.653  31.1%     -   19s
     0     0 -41735.264    0 12004 -31846.000 -41735.264  31.1%     -   20s
     0     0 -41237.637    0 12035 -31846.000 -41237.637  29.5%     -   45s
     0     0 -41058.770    0 12452 -31846.000 -41058.770  28.9%     -   60s
     0     0 -41014.159    0 12754 -31846.000 -41014.159  28.8%     -   70s
     0     0 -41000.188    0 12875 -31846.000 -41000.188  28.7%     -   74s
     0     0 -40996.286    0 13006 -31846.000 -40996.286  28.7%     -   76s
     0     0 -40808.943    0 13076 -31846.000 -40808.943  28.1%     -  108s
     0     0 -40724.042    0 13380 -31846.000 -40724.042  27.9%     -  138s
     0     0 -40701.694    0 13619 -31846.000 -40701.694  27.8%     -  156s
     0     0 -40693.630    0 13814 -31846.000 -40693.630  27.8%     -  167s
     0     0 -40689.834    0 13909 -31846.000 -40689.834  27.8%     -  176s
     0     0 -40529.272    0 13832 -31846.000 -40529.272  27.3%     -  257s
     0     0 -40461.542    0 14230 -31846.000 -40461.542  27.1%     -  320s
     0     0 -40434.206    0 14431 -31846.000 -40434.206  27.0%     -  373s
     0     0 -40421.212    0 14568 -31846.000 -40421.212  26.9%     -  413s
     0     0 -40415.675    0 14778 -31846.000 -40415.675  26.9%     -  437s
     0     0 -40255.282    0 14749 -31846.000 -40255.282  26.4%     -  578s
     0     0 -40200.465    0 14896 -31846.000 -40200.465  26.2%     -  680s
     0     0 -40163.558    0 15062 -31846.000 -40163.558  26.1%     -  771s
     0     0 -40148.356    0 15252 -31846.000 -40148.356  26.1%     -  835s
     0     0 -40141.744    0 15610 -31846.000 -40141.744  26.0%     -  858s
     0     0 -39990.070    0 15612 -31846.000 -39990.070  25.6%     - 1039s
     0     0 -39939.561    0 15791 -31846.000 -39939.561  25.4%     - 1170s
     0     0 -39910.893    0 16092 -31846.000 -39910.893  25.3%     - 1282s
     0     0 -39895.202    0 16217 -31846.000 -39895.202  25.3%     - 1371s
     0     0 -39887.830    0 16584 -31846.000 -39887.830  25.3%     - 1410s
     0     0 -39749.921    0 16365 -31846.000 -39749.921  24.8%     - 1644s
     0     0 -39719.870    0 16627 -31846.000 -39719.870  24.7%     - 1780s
     0     0 -39680.242    0 16745 -31846.000 -39680.242  24.6%     - 1931s
     0     0 -39667.690    0 16880 -31846.000 -39667.690  24.6%     - 2031s
     0     0 -39661.813    0 17214 -31846.000 -39661.813  24.5%     - 2074s
     0     0 -39527.660    0 17010 -31846.000 -39527.660  24.1%     - 2365s
     0     0 -39498.285    0 17366 -31846.000 -39498.285  24.0%     - 2540s
     0     0 -39471.375    0 17473 -31846.000 -39471.375  23.9%     - 2698s
     0     0 -39460.295    0 17622 -31846.000 -39460.295  23.9%     - 2814s
     0     0 -39345.286    0 17276 -31846.000 -39345.286  23.5%     - 3112s
     0     0 -39310.752    0 17607 -31846.000 -39310.752  23.4%     - 3314s
     0     0 -39297.643    0 17941 -31846.000 -39297.643  23.4%     - 3391s
     0     0 -39289.141    0 18164 -31846.000 -39289.141  23.4%     - 3464s
     0     0 -39186.549    0 17968 -31846.000 -39186.549  23.1%     - 3805s
     0     0 -39166.042    0 18226 -31846.000 -39166.042  23.0%     - 3983s
     0     0 -39159.155    0 18477 -31846.000 -39159.155  23.0%     - 4055s
     0     0 -39068.901    0 18396 -31846.000 -39068.901  22.7%     - 4392s
     0     0 -39068.901    0 18058 -31846.000 -39068.901  22.7%     - 4395s
H    0     0                    -31918.00000 -39068.901  22.4%     - 4504s
H    0     0                    -32024.00000 -39068.901  22.0%     - 5166s
     0     2 -39068.895    0 18058 -32024.000 -39068.895  22.0%     - 5173s
     1     3 -39062.891    1 17969 -32024.000 -39068.895  22.0%  7031 5190s
     2     4 -39064.702    1 17967 -32024.000 -39064.702  22.0%  5794 5204s
     3     5 -39058.619    2 17931 -32024.000 -39064.702  22.0%  4970 5214s
     4     6 -39056.917    2 17942 -32024.000 -39064.702  22.0%  5142 5229s
     5     7 -39051.718    3 17923 -32024.000 -39064.702  22.0%  5583 5249s
     6     8 -39053.643    3 17900 -32024.000 -39064.702  22.0%  5712 5266s
     7     9 -39045.043    4 17874 -32024.000 -39064.702  22.0%  5878 5285s
     8    10 -39046.633    4 17881 -32024.000 -39064.702  22.0%  5999 5304s
     9    11 -39037.355    5 17871 -32024.000 -39064.702  22.0%  5959 5320s
    10    12 -39039.355    5 17882 -32024.000 -39064.702  22.0%  5870 5333s
    11    13 -39030.476    6 17841 -32024.000 -39064.702  22.0%  5983 5375s
    12    14 -39032.161    6 17840 -32024.000 -39064.702  22.0%  6166 5398s
    13    15 -39024.083    7 17873 -32024.000 -39064.702  22.0%  6201 5416s
    14    16 -39023.838    7 17856 -32024.000 -39064.702  22.0%  6180 5432s
    15    17 -39017.700    8 17872 -32024.000 -39064.702  22.0%  6155 5447s
    16    18 -39019.700    8 17878 -32024.000 -39064.702  22.0%  6106 5462s
    17    19 -39015.189    9 18010 -32024.000 -39064.702  22.0% 18574 5957s
    18    20 -39016.656    9 17854 -32024.000 -39064.702  22.0% 17682 5965s
    19    21 -39009.520   10 17867 -32024.000 -39064.702  22.0% 17101 5983s
    20    22 -39001.816   11 17817 -32024.000 -39064.702  22.0% 16557 6000s
    21    23 -38996.537   12 17776 -32024.000 -39064.702  22.0% 16031 6015s
    22    24 -38988.872   13 17749 -32024.000 -39064.702  22.0% 15542 6029s
    23    25 -38990.880   13 17737 -32024.000 -39064.702  22.0% 15070 6042s
    24    26 -38982.370   14 17688 -32024.000 -39064.702  22.0% 14653 6055s
    25    27 -38975.307   15 17690 -32024.000 -39064.702  22.0% 14263 6069s
    26    28 -38970.232   16 17674 -32024.000 -39064.702  22.0% 13905 6082s
H   27    27                    -32096.00000 -39064.702  21.7% 13390 6088s
    28    30 -38964.826   17 17640 -32096.000 -39064.702  21.7% 13190 6104s
    29    31 -38959.372   18 17575 -32096.000 -39064.702  21.7% 12980 6123s
    30    32 -38956.261   19 17532 -32096.000 -39064.702  21.7% 12670 6134s
    31    33 -38949.937   20 17497 -32096.000 -39064.702  21.7% 12434 6150s
    32    34 -38943.276   21 17454 -32096.000 -39064.702  21.7% 12142 6158s
    33    35 -38936.364   22 17487 -32096.000 -39064.702  21.7% 11946 6173s
    34    36 -38938.290   22 17500 -32096.000 -39064.702  21.7% 11700 6182s
    35    37 -38930.689   23 17475 -32096.000 -39064.702  21.7% 11578 6201s
    36    38 -38932.003   23 17475 -32096.000 -39064.702  21.7% 11444 6219s
    37    39 -38922.874   24 17463 -32096.000 -39064.702  21.7% 11296 6234s
    38    40 -38924.051   24 17453 -32096.000 -39064.702  21.7% 11209 6246s
    39    41 -38920.602   25 17427 -32096.000 -39064.702  21.7% 11063 6260s
    40    42 -38921.938   25 17410 -32096.000 -39064.702  21.7% 10908 6273s
    41    43 -38912.165   26 17352 -32096.000 -39064.702  21.7% 10853 6295s
    42    44 -38914.165   26 17378 -32096.000 -39064.702  21.7% 10912 6316s
    43    45 -38906.238   27 17333 -32096.000 -39064.702  21.7% 10731 6324s
    44    46 -38902.117   28 17319 -32096.000 -39064.702  21.7% 10586 6334s
    45    47 -38894.827   29 17279 -32096.000 -39064.702  21.7% 10465 6347s
    46    48 -38896.604   29 17282 -32096.000 -39064.702  21.7% 10344 6360s
    47    49 -38887.827   30 17292 -32096.000 -39064.702  21.7% 10173 6366s
    48    50 -38881.028   31 17275 -32096.000 -39064.702  21.7% 10059 6378s
    49    51 -38875.879   32 17225 -32096.000 -39064.702  21.7%  9995 6395s
    50    52 -38877.879   32 17237 -32096.000 -39064.702  21.7%  9944 6414s
    51    53 -38870.697   33 17231 -32096.000 -39064.702  21.7%  9833 6425s
    52    54 -38862.879   34 17218 -32096.000 -39064.702  21.7%  9725 6435s
    53    55 -38856.875   35 17216 -32096.000 -39064.702  21.7%  9669 6452s
    54    56 -38852.320   36 17205 -32096.000 -39064.702  21.7%  9538 6459s
    55    57 -38846.197   37 17199 -32096.000 -39064.702  21.7%  9472 6475s
    56    58 -38847.762   37 17222 -32096.000 -39064.702  21.7%  9488 6491s
    57    59 -38840.763   38 17205 -32096.000 -39064.702  21.7%  9386 6499s
    58    60 -38837.751   39 17155 -32096.000 -39064.702  21.7%  9287 6509s
    59    61 -38834.381   40 17138 -32096.000 -39064.702  21.7%  9199 6519s
    60    62 -38829.651   41 17116 -32096.000 -39064.702  21.7%  9110 6528s
    61    63 -38820.153   42 17141 -32096.000 -39064.702  21.7%  9058 6543s
    62    64 -38821.319   42 17108 -32096.000 -39064.702  21.7%  8991 6555s
    63    65 -38809.470   43 17123 -32096.000 -39064.702  21.7%  8884 6560s
    64    66 -38803.900   44 17082 -32096.000 -39064.702  21.7%  8818 6572s
    65    67 -38799.405   45 17044 -32096.000 -39064.702  21.7%  8776 6587s
    66    68 -38793.742   46 17005 -32096.000 -39064.702  21.7%  8707 6597s
    67    69 -38787.527   47 17100 -32096.000 -39064.702  21.7% 11651 6919s
    68    70 -38789.281   47 17035 -32096.000 -39064.702  21.7% 11571 6934s
    69    71 -38784.141   48 16988 -32096.000 -39064.702  21.7% 11487 6948s
    70    72 -38779.869   49 16926 -32096.000 -39064.702  21.7% 11413 6964s
    71    73 -38781.765   49 16935 -32096.000 -39064.702  21.7% 11340 6979s
    72    74 -38776.019   50 16930 -32096.000 -39064.702  21.7% 11210 6984s
    73    75 -38770.606   51 16878 -32096.000 -39064.702  21.7% 11137 6998s
    74    76 -38765.335   52 16859 -32096.000 -39064.702  21.7% 11060 7011s
    75    77 -38766.099   52 16872 -32096.000 -39064.702  21.7% 11002 7027s
    76    78 -38760.138   53 16873 -32096.000 -39064.702  21.7% 10911 7037s
    77    79 -38753.520   54 16836 -32096.000 -39064.702  21.7% 10819 7046s
    78    80 -38745.568   55 16784 -32096.000 -39064.702  21.7% 10748 7059s
    79    81 -38739.232   56 16816 -32096.000 -39064.702  21.7% 10667 7069s
    80    82 -38741.642   56 16800 -32096.000 -39064.702  21.7% 10597 7081s
    81    83 -38732.712   57 16810 -32096.000 -39064.702  21.7% 10506 7089s
    82    84 -38724.847   58 16816 -32096.000 -39064.702  21.7% 10430 7099s
    83    85 -38724.847   58 16824 -32096.000 -39064.702  21.7% 10367 7112s
    84    86 -38719.440   59 16847 -32096.000 -39064.702  21.7% 10320 7127s
    85    87 -38713.185   60 16826 -32096.000 -39064.702  21.7% 10260 7139s
    86    88 -38707.003   61 16777 -32096.000 -39064.702  21.7% 10203 7152s
    87    89 -38697.365   62 16795 -32096.000 -39064.702  21.7% 10111 7157s
    88    90 -38689.018   63 16770 -32096.000 -39064.702  21.7% 10050 7168s
    89    91 -38683.207   64 16743 -32096.000 -39064.702  21.7%  9981 7177s
    90    92 -38673.843   65 16735 -32096.000 -39064.702  21.7%  9926 7189s
    91    93 -38664.024   66 16740 -32096.000 -39064.702  21.7%  9854 7197s
    92    94 -38659.064   67 16675 -32096.000 -39064.702  21.7%  9816 7213s
    93    95 -38652.053   68 16645 -32096.000 -39064.702  21.7%  9745 7220s
    94    96 -38643.170   69 16682 -32096.000 -39064.702  21.7%  9677 7228s
    95    97 -38647.849   69 16670 -32096.000 -39064.702  21.7%  9589 7231s
    96    98 -38639.400   70 16640 -32096.000 -39064.702  21.7%  9521 7238s
    97    99 -38634.516   71 16589 -32096.000 -39064.702  21.7%  9471 7249s
    98   100 -38625.382   72 16655 -32096.000 -39064.702  21.7%  9432 7262s
    99   101 -38627.255   72 16645 -32096.000 -39064.702  21.7%  9385 7274s
   100   102 -38616.095   73 16635 -32096.000 -39064.702  21.7%  9327 7282s
   101   103 -38608.166   74 16640 -32096.000 -39064.702  21.7%  9266 7290s
   102   104 -38603.320   75 16639 -32096.000 -39064.702  21.7%  9202 7296s
   103   105 -38595.025   76 16621 -32096.000 -39064.702  21.7%  9178 7313s
   104   106 -38596.516   76 16636 -32096.000 -39064.702  21.7%  9137 7324s
   105   107 -38589.978   77 16648 -32096.000 -39064.702  21.7%  9094 7335s
   106   108 -38585.476   78 16654 -32096.000 -39064.702  21.7% 10780 7688s
   107   109 -38585.777   78 16627 -32096.000 -39064.702  21.7% 10718 7697s
   108   110 -38578.322   79 16595 -32096.000 -39064.702  21.7% 10650 7706s
   109   111 -38572.150   80 16600 -32096.000 -39064.702  21.7% 10585 7714s
   110   112 -38566.417   81 16596 -32096.000 -39064.702  21.7% 10520 7722s
   111   113 -38559.274   82 16551 -32096.000 -39064.702  21.7% 10461 7732s
   112   114 -38553.264   83 16559 -32096.000 -39064.702  21.7% 10408 7743s
   113   115 -38547.905   84 16544 -32096.000 -39064.702  21.7% 10363 7756s
   114   116 -38541.168   85 16528 -32096.000 -39064.702  21.7% 10303 7764s
   115   117 -38535.052   86 16555 -32096.000 -39064.702  21.7% 10254 7776s
   116   118 -38528.455   87 16520 -32096.000 -39064.702  21.7% 10198 7785s
   117   119 -38520.363   88 16538 -32096.000 -39064.702  21.7% 10161 7800s
   118   120 -38522.862   88 16526 -32096.000 -39064.702  21.7% 10110 7809s
   119   121 -38517.257   89 16461 -32096.000 -39064.702  21.7% 10047 7815s
   120   122 -38516.146   89 16486 -32096.000 -39064.702  21.7%  9983 7821s
   121   123 -38511.578   90 16452 -32096.000 -39064.702  21.7%  9951 7836s
   122   124 -38511.667   90 16464 -32096.000 -39064.702  21.7%  9928 7853s
   123   125 -38508.944   91 16419 -32096.000 -39064.702  21.7%  9868 7859s
   124   126 -38506.278   92 16412 -32096.000 -39064.702  21.7%  9819 7868s
   125   127 -38500.725   93 16355 -32096.000 -39064.702  21.7%  9790 7882s
   126   128 -38496.148   94 16354 -32096.000 -39064.702  21.7%  9752 7893s
   127   129 -38488.627   95 16367 -32096.000 -39064.702  21.7%  9719 7905s
   128   130 -38478.763   96 16383 -32096.000 -39064.702  21.7%  9690 7919s
   129   131 -38480.559   96 16372 -32096.000 -39064.702  21.7%  9650 7929s
   130   132 -38473.623   97 16345 -32096.000 -39064.702  21.7%  9612 7940s
   131   133 -38468.511   98 16297 -32096.000 -39064.702  21.7%  9573 7950s
   132   134 -38462.898   99 16357 -32096.000 -39064.702  21.7%  9552 7966s
   133   135 -38465.858   99 16325 -32096.000 -39064.702  21.7%  9523 7979s
   134   136 -38454.143  100 16339 -32096.000 -39064.702  21.7%  9498 7993s
H  135   135                    -32184.00000 -39064.702  21.4%  9428 8007s
   136   138 -38437.522  102 16331 -32184.000 -39064.702  21.4%  9433 8015s
   137   139 -38431.486  103 16305 -32184.000 -39064.702  21.4%  9387 8022s
   138   140 -38426.573  104 16307 -32184.000 -39064.702  21.4%  9337 8028s
   139   141 -38420.620  105 16320 -32184.000 -39064.702  21.4%  9287 8033s
   140   142 -38415.612  106 16348 -32184.000 -39064.702  21.4%  9240 8039s
   141   143 -38418.398  106 16316 -32184.000 -39064.702  21.4%  9189 8044s
   142   144 -38414.944  107 16307 -32184.000 -39064.702  21.4%  9141 8049s
   143   145 -38407.421  108 16280 -32184.000 -39064.702  21.4%  9121 8063s
   144   146 -38402.356  109 16284 -32184.000 -39064.702  21.4%  9085 8071s
   145   147 -38402.206  109 16310 -32184.000 -39064.702  21.4%  9057 8083s
   146   148 -38394.568  110 16274 -32184.000 -39064.702  21.4%  9021 8091s
   147   149 -38397.283  110 16273 -32184.000 -39064.702  21.4%  8988 8101s
   148   150 -38386.688  111 16223 -32184.000 -39064.702  21.4%  8953 8109s
   149   151 -38381.104  112 16218 -32184.000 -39064.702  21.4%  8905 8112s
   150   152 -38374.654  113 16223 -32184.000 -39064.702  21.4%  8852 8115s
   151   153 -38370.970  114 16220 -32184.000 -39064.702  21.4%  8810 8120s
   152   154 -38363.962  115 16229 -32184.000 -39064.702  21.4%  8782 8130s
   154   156 -38349.669  117 16185 -32184.000 -39064.702  21.4%  8689 8137s
   155   157 -38343.467  118 16191 -32184.000 -39064.702  21.4%  8657 8145s
   156   158 -38335.439  119 16197 -32184.000 -39064.702  21.4%  8631 8155s
   157   159 -38331.414  120 16224 -32184.000 -39064.702  21.4%  8613 8168s
   158   160 -38323.988  121 16218 -32184.000 -39064.702  21.4%  8592 8179s
   159   161 -38325.172  121 16196 -32184.000 -39064.702  21.4%  8568 8190s

Cutting planes:
  Gomory: 61
  MIR: 274
  Zero half: 7274
  RLT: 1366
  BQP: 1625

Explored 160 nodes (3333306 simplex iterations) in 8192.01 seconds (12725.26 work units)
Thread count was 1 (of 72 available processors)

Solution count 9: -32184 -32096 -32024 ... -20944

Time limit reached
Best objective -3.218400000000e+04, best bound -3.906400000000e+04, gap 21.3771%

User-callback calls 54892, time in user-callback 0.26 sec

BQP_SOLUTION, 5387, 25280, -10109.000000, 8192.006953, 1, 1, -1, 1, 1, 1, 1, -1, 1, -1, -1, 1, 1, -1, 1, 1, -1, 1, 1, 1, -1, 1, -1, 1, 1, -1, 1, 1, 1, -1, 1, 1, 1, 1, 1, 1, 1, -1, 1, 1, -1, 1, 1, 1, 1, 1, 1, -1, 1, 1, 1, 1, 1, 1, 1, 1, -1, 1, 1, 1, -1, 1, 1, 1, -1, 1, -1, 1, 1, 1, 1, 1, -1, 1, 1, 1, 1, 1, 1, 1, -1, 1, -1, 1, 1, -1, -1, 1, -1, 1, 1, 1, 1, -1, 1, 1, 1, 1, 1, 1, -1, 1, -1, 1, 1, 1, 1, 1, 1, 1, -1, 1, 1, 1, 1, 1, 1, 1, 1, -1, 1, 1, -1, 1, 1, 1, 1, -1, 1, 1, 1, -1, 1, 1, 1, 1, 1, 1, 1, 1, 1, 1, 1, 1, 1, -1, 1, 1, 1, 1, 1, 1, 1, 1, 1, 1, -1, 1, 1, 1, 1, 1, 1, -1, 1, 1, -1, 1, 1, 1, 1, 1, -1, 1, 1, 1, 1, 1, 1, 1, 1, 1, 1, 1, 1, 1, -1, 1, 1, 1, 1, -1, 1, 1, -1, 1, 1, 1, 1, 1, 1, 1, -1, 1, 1, 1, 1, 1, 1, 1, 1, 1, 1, 1, 1, 1, 1, 1, -1, 1, 1, -1, 1, 1, 1, -1, -1, 1, 1, 1, 1, 1, 1, 1, 1, 1, 1, 1, 1, 1, 1, -1, 1, 1, 1, 1, 1, -1, 1, -1, 1, 1, 1, 1, 1, 1, 1, 1, 1, 1, 1, -1, 1, 1, 1, -1, 1, 1, 1, 1, 1, -1, 1, 1, -1, 1, 1, 1, 1, 1, 1, 1, 1, 1, 1, 1, 1, 1, 1, 1, 1, -1, 1, 1, 1, 1, 1, 1, -1, 1, -1, 1, -1, 1, 1, 1, 1, 1, 1, 1, 1, 1, 1, 1, 1, -1, 1, 1, -1, 1, 1, 1, 1, 1, 1, 1, 1, 1, 1, 1, 1, 1, -1, 1, 1, 1, 1, 1, 1, 1, 1, 1, -1, 1, 1, 1, -1, 1, 1, 1, 1, 1, 1, 1, 1, 1, 1, 1, 1, 1, 1, 1, -1, 1, 1, 1, 1, 1, -1, 1, 1, -1, 1, 1, 1, 1, -1, 1, 1, -1, 1, 1, 1, -1, 1, 1, 1, 1, 1, 1, 1, 1, 1, 1, 1, 1, 1, -1, 1, 1, 1, 1, 1, 1, 1, 1, 1, 1, -1, -1, 1, 1, 1, -1, 1, 1, 1, 1, 1, 1, 1, 1, 1, 1, 1, 1, -1, 1, 1, -1, 1, 1, 1, 1, 1, 1, 1, 1, 1, 1, 1, 1, 1, 1, 1, 1, 1, -1, 1, 1, 1, 1, 1, 1, 1, 1, 1, 1, 1, -1, 1, -1, 1, -1, 1, 1, -1, 1, 1, 1, 1, 1, -1, 1, 1, 1, 1, 1, 1, 1, 1, 1, 1, 1, 1, -1, 1, 1, 1, 1, 1, 1, 1, 1, 1, 1, 1, 1, -1, 1, 1, 1, 1, -1, 1, 1, 1, -1, 1, -1, 1, 1, 1, 1, 1, 1, 1, 1, 1, 1, -1, 1, 1, 1, 1, 1, 1, 1, 1, 1, 1, 1, 1, 1, 1, 1, 1, -1, 1, 1, 1, 1, 1, 1, 1, 1, 1, 1, 1, 1, 1, 1, 1, 1, 1, 1, 1, 1, -1, 1, 1, 1, 1, 1, 1, 1, -1, 1, 1, 1, 1, 1, 1, 1, 1, 1, 1, 1, 1, 1, 1, 1, 1, 1, 1, -1, 1, 1, 1, 1, 1, 1, 1, 1, 1, 1, 1, 1, -1, 1, 1, 1, 1, 1, -1, 1, 1, 1, 1, 1, 1, 1, 1, 1, -1, 1, 1, 1, -1, 1, 1, 1, 1, 1, -1, 1, 1, 1, -1, 1, -1, 1, 1, 1, 1, 1, 1, 1, 1, 1, 1, 1, 1, 1, 1, 1, 1, 1, 1, 1, -1, 1, 1, 1, 1, 1, 1, 1, 1, 1, 1, -1, 1, 1, 1, -1, 1, 1, -1, -1, 1, 1, 1, 1, 1, 1, 1, 1, 1, 1, 1, 1, 1, 1, -1, 1, 1, 1, 1, 1, 1, 1, 1, -1, 1, 1, 1, 1, 1, 1, 1, 1, 1, 1, 1, 1, 1, 1, 1, 1, 1, 1, 1, -1, 1, 1, 1, 1, 1, 1, -1, 1, 1, 1, 1, 1, -1, 1, 1, 1, 1, -1, 1, 1, 1, 1, 1, -1, 1, 1, 1, 1, -1, 1, 1, 1, 1, 1, 1, 1, 1, 1, 1, 1, 1, 1, 1, 1, 1, 1, 1, 1, 1, 1, 1, 1, 1, 1, 1, 1, 1, -1, 1, 1, 1, 1, 1, 1, 1, 1, 1, 1, -1, 1, 1, 1, 1, 1, 1, 1, 1, -1, 1, 1, 1, 1, 1, 1, 1, 1, 1, 1, 1, 1, 1, -1, 1, 1, 1, 1, -1, 1, 1, 1, 1, 1, 1, 1, 1, 1, -1, 1, 1, 1, 1, -1, 1, 1, 1, 1, 1, 1, 1, 1, 1, 1, 1, 1, 1, 1, 1, 1, 1, -1, 1, 1, 1, -1, 1, 1, 1, 1, 1, 1, 1, -1, 1, 1, 1, 1, 1, 1, 1, -1, 1, 1, 1, -1, 1, -1, 1, 1, 1, 1, 1, 1, 1, -1, 1, 1, 1, 1, 1, 1, 1, 1, 1, 1, 1, 1, 1, -1, 1, 1, 1, -1, 1, 1, 1, 1, -1, 1, 1, 1, 1, 1, -1, 1, 1, 1, 1, 1, 1, 1, 1, 1, 1, 1, 1, 1, 1, 1, 1, 1, -1, 1, 1, 1, 1, 1, -1, 1, 1, 1, -1, 1, 1, 1, 1, 1, 1, 1, 1, -1, 1, -1, 1, 1, 1, 1, 1, 1, 1, 1, 1, 1, 1, 1, 1, 1, -1, 1, -1, 1, 1, 1, 1, 1, -1, -1, -1, 1, 1, 1, 1, 1, 1, -1, 1, 1, 1, 1, 1, 1, 1, 1, 1, 1, 1, 1, 1, 1, 1, 1, -1, 1, 1, 1, 1, 1, 1, 1, -1, 1, 1, 1, 1, -1, 1, 1, 1, 1, 1, -1, 1, -1, 1, 1, 1, 1, 1, 1, -1, 1, 1, 1, 1, -1, -1, 1, 1, 1, 1, 1, -1, 1, 1, 1, 1, 1, 1, -1, 1, 1, -1, 1, 1, 1, 1, 1, -1, 1, 1, 1, -1, 1, 1, 1, 1, 1, 1, 1, -1, 1, 1, 1, 1, 1, 1, -1, 1, 1, -1, 1, -1, 1, 1, 1, 1, 1, 1, 1, 1, 1, -1, 1, 1, 1, 1, 1, 1, 1, 1, 1, 1, 1, 1, -1, 1, 1, 1, 1, 1, 1, 1, 1, 1, 1, -1, 1, 1, 1, -1, 1, 1, 1, 1, 1, -1, 1, 1, 1, 1, 1, 1, 1, 1, 1, 1, 1, 1, 1, 1, 1, 1, 1, 1, -1, -1, 1, 1, 1, -1, 1, -1, 1, 1, 1, 1, 1, 1, 1, 1, 1, 1, 1, 1, 1, 1, 1, 1, 1, 1, 1, 1, 1, 1, 1, 1, 1, 1, 1, 1, -1, 1, 1, 1, 1, -1, 1, 1, 1, 1, 1, 1, -1, 1, 1, 1, 1, 1, 1, 1, 1, 1, 1, 1, 1, -1, 1, 1, 1, 1, 1, -1, 1, 1, 1, -1, 1, 1, 1, 1, 1, 1, 1, -1, 1, 1, 1, 1, 1, -1, 1, 1, 1, 1, 1, 1, 1, 1, 1, 1, 1, -1, 1, 1, 1, -1, 1, 1, 1, 1, -1, 1, -1, 1, 1, 1, 1, -1, -1, 1, 1, -1, 1, 1, -1, 1, -1, 1, 1, 1, 1, -1, 1, 1, -1, 1, 1, 1, 1, -1, 1, 1, 1, 1, 1, 1, -1, 1, 1, 1, 1, 1, 1, 1, 1, -1, 1, 1, 1, -1, -1, 1, 1, 1, 1, 1, 1, 1, 1, 1, 1, 1, 1, 1, -1, 1, 1, 1, 1, 1, 1, 1, 1, 1, 1, 1, 1, 1, -1, 1, 1, 1, 1, -1, 1, 1, -1, 1, 1, 1, 1, 1, 1, 1, 1, 1, 1, 1, 1, 1, 1, 1, -1, 1, 1, 1, 1, 1, 1, 1, 1, 1, 1, 1, 1, 1, 1, 1, 1, 1, -1, 1, 1, 1, 1, 1, 1, 1, 1, 1, 1, 1, 1, 1, 1, 1, -1, 1, 1, 1, 1, 1, 1, 1, 1, 1, 1, -1, 1, 1, 1, 1, 1, 1, 1, -1, 1, 1, 1, 1, -1, 1, 1, 1, 1, 1, 1, 1, 1, 1, 1, 1, 1, 1, 1, 1, 1, 1, 1, 1, 1, 1, 1, 1, -1, 1, 1, -1, 1, 1, 1, -1, 1, 1, 1, 1, 1, 1, 1, 1, 1, 1, 1, 1, 1, 1, 1, 1, 1, 1, 1, 1, 1, 1, 1, 1, 1, -1, 1, 1, -1, 1, 1, -1, 1, 1, 1, 1, 1, 1, 1, 1, 1, 1, 1, 1, 1, 1, 1, 1, 1, 1, 1, 1, 1, 1, 1, 1, 1, 1, -1, 1, 1, -1, 1, -1, 1, 1, 1, 1, -1, 1, 1, 1, 1, 1, -1, 1, 1, -1, 1, 1, 1, 1, -1, 1, 1, 1, 1, 1, 1, 1, 1, 1, 1, -1, 1, 1, 1, 1, 1, 1, 1, -1, 1, -1, 1, 1, 1, 1, 1, 1, -1, 1, 1, 1, 1, 1, 1, 1, 1, 1, 1, 1, 1, 1, 1, 1, 1, 1, 1, -1, 1, -1, 1, 1, 1, 1, 1, 1, 1, 1, 1, -1, 1, 1, 1, 1, 1, 1, 1, -1, 1, 1, 1, -1, 1, 1, 1, 1, 1, 1, 1, -1, 1, 1, 1, 1, -1, -1, 1, -1, 1, 1, 1, -1, -1, 1, 1, 1, 1, 1, -1, 1, 1, 1, 1, 1, 1, -1, 1, 1, 1, 1, 1, 1, 1, 1, 1, 1, 1, 1, 1, 1, 1, 1, -1, 1, 1, 1, 1, 1, -1, 1, 1, 1, 1, 1, 1, 1, 1, 1, 1, 1, 1, 1, 1, 1, 1, 1, 1, 1, 1, 1, 1, 1, 1, 1, 1, 1, 1, 1, 1, 1, 1, 1, 1, 1, 1, 1, 1, 1, 1, 1, 1, 1, 1, 1, 1, 1, 1, 1, 1, 1, 1, 1, 1, 1, 1, 1, 1, 1, 1, 1, 1, 1, 1, -1, 1, 1, 1, 1, 1, 1, 1, 1, 1, 1, 1, 1, 1, 1, 1, 1, 1, -1, 1, 1, 1, 1, 1, 1, 1, 1, 1, 1, 1, 1, 1, 1, -1, 1, 1, 1, 1, 1, 1, 1, 1, 1, 1, 1, 1, 1, 1, 1, 1, 1, -1, 1, 1, 1, 1, 1, 1, 1, -1, 1, -1, 1, 1, 1, 1, 1, 1, 1, 1, 1, 1, 1, 1, 1, 1, 1, 1, 1, 1, 1, 1, 1, 1, 1, 1, 1, 1, 1, 1, 1, 1, 1, 1, 1, 1, 1, 1, 1, 1, 1, 1, 1, 1, 1, 1, 1, 1, 1, 1, 1, 1, 1, 1, 1, 1, 1, 1, 1, 1, -1, 1, -1, 1, 1, 1, 1, 1, -1, 1, 1, -1, 1, 1, 1, 1, 1, 1, 1, 1, 1, 1, 1, 1, 1, 1, 1, 1, 1, 1, 1, -1, 1, 1, 1, 1, 1, 1, 1, 1, -1, 1, 1, -1, 1, 1, 1, 1, 1, 1, 1, 1, 1, 1, 1, 1, 1, 1, 1, 1, -1, 1, 1, 1, -1, 1, 1, 1, 1, 1, 1, 1, 1, 1, 1, 1, 1, 1, 1, 1, -1, 1, 1, 1, 1, 1, 1, 1, 1, 1, 1, -1, 1, 1, -1, 1, 1, 1, -1, 1, 1, 1, 1, 1, 1, 1, 1, 1, 1, 1, -1, 1, 1, 1, 1, 1, 1, -1, 1, 1, 1, 1, 1, 1, 1, 1, 1, 1, 1, -1, 1, 1, 1, 1, 1, -1, 1, 1, 1, 1, -1, 1, 1, 1, 1, -1, 1, 1, 1, 1, 1, 1, 1, 1, -1, 1, 1, 1, 1, 1, 1, 1, 1, 1, 1, 1, 1, 1, 1, -1, 1, 1, 1, 1, 1, 1, 1, 1, 1, 1, 1, 1, -1, 1, 1, 1, 1, 1, 1, 1, 1, 1, 1, 1, 1, 1, 1, 1, 1, 1, -1, 1, 1, 1, 1, 1, 1, 1, 1, -1, 1, 1, 1, 1, 1, -1, 1, 1, 1, 1, 1, 1, 1, 1, -1, 1, 1, 1, 1, 1, 1, 1, 1, 1, 1, 1, 1, -1, 1, 1, 1, 1, 1, 1, 1, -1, 1, 1, 1, 1, 1, 1, 1, 1, -1, 1, 1, -1, 1, -1, 1, 1, -1, 1, 1, 1, 1, 1, 1, -1, 1, 1, 1, 1, 1, 1, 1, 1, 1, 1, 1, 1, 1, 1, 1, 1, -1, 1, 1, 1, 1, -1, 1, 1, 1, 1, -1, 1, 1, 1, 1, 1, 1, 1, 1, -1, 1, 1, 1, 1, 1, 1, 1, 1, 1, 1, 1, 1, 1, 1, -1, 1, 1, 1, 1, 1, 1, 1, 1, 1, 1, 1, 1, 1, -1, -1, 1, 1, -1, 1, 1, 1, 1, 1, 1, 1, 1, 1, 1, 1, 1, 1, 1, 1, 1, 1, 1, 1, 1, 1, 1, 1, 1, 1, 1, 1, 1, -1, 1, 1, 1, 1, 1, 1, 1, 1, 1, -1, 1, 1, 1, 1, 1, 1, 1, 1, 1, 1, 1, 1, -1, 1, 1, 1, 1, 1, 1, 1, 1, 1, 1, 1, 1, 1, 1, 1, 1, -1, 1, -1, 1, 1, 1, 1, 1, 1, 1, 1, -1, 1, 1, 1, 1, 1, 1, -1, 1, -1, 1, 1, 1, 1, 1, 1, 1, -1, 1, -1, 1, -1, 1, 1, 1, 1, 1, 1, 1, -1, 1, -1, 1, 1, 1, 1, 1, -1, -1, 1, 1, 1, 1, 1, 1, -1, 1, 1, 1, 1, 1, 1, 1, 1, 1, 1, 1, 1, 1, -1, 1, 1, 1, 1, 1, 1, 1, 1, 1, 1, 1, 1, 1, 1, -1, 1, 1, 1, 1, 1, 1, 1, 1, 1, -1, 1, 1, 1, 1, 1, 1, 1, -1, 1, 1, 1, 1, 1, 1, 1, 1, 1, 1, 1, -1, 1, 1, 1, 1, 1, 1, 1, 1, -1, 1, 1, -1, 1, 1, 1, 1, 1, 1, 1, 1, 1, 1, -1, 1, 1, 1, 1, 1, 1, -1, 1, 1, 1, 1, 1, 1, 1, 1, 1, 1, 1, 1, -1, 1, 1, 1, 1, 1, -1, 1, 1, 1, 1, 1, 1, 1, 1, 1, 1, 1, 1, 1, 1, 1, 1, -1, 1, 1, 1, 1, 1, -1, 1, 1, 1, 1, 1, 1, 1, 1, 1, 1, 1, 1, 1, 1, 1, 1, 1, 1, 1, 1, 1, 1, 1, -1, 1, 1, 1, 1, 1, 1, 1, -1, 1, 1, 1, -1, 1, 1, 1, 1, -1, 1, 1, 1, 1, 1, 1, 1, 1, 1, 1, 1, 1, 1, 1, 1, 1, -1, 1, 1, 1, 1, 1, 1, 1, 1, 1, 1, 1, 1, 1, 1, 1, 1, 1, 1, -1, 1, 1, 1, 1, 1, 1, 1, 1, 1, -1, 1, 1, 1, 1, 1, 1, 1, 1, 1, 1, 1, 1, 1, 1, 1, 1, 1, 1, 1, 1, 1, 1, 1, 1, -1, 1, 1, 1, 1, 1, 1, 1, 1, 1, 1, -1, 1, 1, -1, 1, 1, 1, 1, -1, 1, 1, 1, 1, -1, 1, 1, 1, 1, 1, 1, -1, 1, 1, 1, 1, 1, 1, 1, 1, 1, 1, 1, 1, 1, -1, 1, 1, 1, -1, 1, 1, 1, 1, 1, -1, 1, 1, 1, 1, 1, 1, 1, 1, 1, -1, 1, 1, 1, 1, 1, 1, 1, -1, 1, 1, 1, 1, 1, 1, 1, 1, 1, -1, 1, 1, -1, 1, 1, 1, 1, 1, -1, 1, 1, 1, 1, 1, 1, 1, 1, -1, 1, -1, 1, 1, 1, 1, 1, -1, 1, 1, 1, 1, 1, 1, 1, 1, 1, 1, 1, 1, -1, 1, 1, 1, 1, 1, 1, 1, 1, 1, 1, 1, 1, 1, 1, -1, 1, 1, -1, 1, 1, 1, 1, 1, -1, 1, 1, 1, 1, 1, -1, 1, 1, 1, 1, 1, 1, 1, -1, 1, -1, -1, -1, -1, -1, -1, -1, -1, -1, -1, -1, -1, -1, -1, -1, -1, -1, -1, -1, -1, -1, -1, -1, -1, -1, -1, -1, 1, -1, -1, -1, -1, -1, -1, -1, -1, -1, -1, -1, -1, -1, -1, -1, -1, -1, -1, -1, -1, -1, -1, -1, -1, -1, -1, -1, -1, -1, -1, -1, -1, -1, -1, -1, -1, -1, -1, -1, -1, -1, -1, -1, -1, -1, -1, -1, -1, -1, -1, -1, -1, -1, -1, -1, -1, -1, -1, -1, -1, -1, -1, -1, -1, -1, -1, -1, -1, -1, -1, -1, -1, -1, -1, -1, -1, -1, -1, -1, -1, -1, -1, -1, -1, -1, -1, 1, -1, -1, 1, -1, -1, -1, -1, -1, -1, -1, -1, -1, -1, -1, -1, -1, -1, -1, -1, -1, -1, -1, -1, -1, -1, -1, -1, -1, -1, -1, -1, -1, -1, -1, -1, -1, -1, -1, -1, -1, -1, -1, -1, -1, -1, -1, -1, -1, -1, -1, -1, -1, -1, -1, -1, -1, -1, -1, -1, -1, -1, -1, -1, -1, -1, -1, -1, -1, -1, -1, -1, -1, -1, -1, -1, -1, -1, -1, -1, -1, 1, -1, -1, -1, -1, -1, -1, -1, -1, -1, -1, -1, 1, -1, -1, -1, -1, -1, -1, -1, -1, -1, -1, -1, -1, -1, 1, -1, -1, -1, -1, 1, -1, 1, -1, -1, -1, -1, -1, -1, -1, 1, -1, -1, -1, -1, -1, -1, -1, -1, 1, -1, -1, -1, -1, -1, -1, -1, 1, -1, -1, 1, 1, -1, -1, -1, -1, -1, -1, 1, -1, -1, -1, 1, -1, -1, -1, -1, -1, -1, -1, -1, -1, -1, -1, -1, -1, -1, -1, -1, 1, 1, -1, -1, 1, -1, -1, -1, -1, -1, -1, -1, -1, -1, -1, -1, -1, -1, -1, -1, -1, -1, -1, -1, -1, -1, -1, -1, -1, -1, -1, -1, 1, -1, -1, -1, -1, -1, -1, -1, -1, -1, -1, -1, -1, -1, -1, -1, -1, 1, -1, -1, -1, -1, -1, -1, -1, -1, -1, 1, -1, -1, -1, -1, -1, -1, -1, -1, -1, -1, -1, -1, -1, -1, -1, -1, -1, -1, -1, -1, -1, -1, -1, -1, -1, -1, -1, -1, -1, -1, -1, -1, -1, -1, -1, -1, -1, -1, -1, -1, -1, -1, -1, -1, -1, -1, -1, -1, -1, -1, -1, -1, -1, -1, -1, -1, -1, -1, -1, -1, -1, -1, -1, -1, -1, -1, -1, -1, -1, -1, -1, -1, -1, -1, -1, -1, -1, -1, -1, -1, -1, -1, -1, -1, -1, -1, -1, -1, -1, -1, -1, -1, -1, -1, -1, -1, -1, -1, -1, -1, -1, -1, -1, -1, -1, -1, -1, -1, -1, -1, -1, -1, -1, -1, -1, -1, -1, -1, -1, -1, -1, -1, -1, -1, -1, -1, -1, -1, 1, -1, -1, -1, -1, -1, -1, -1, -1, -1, -1, -1, -1, -1, -1, -1, -1, -1, 1, -1, -1, -1, -1, -1, -1, -1, -1, -1, -1, -1, -1, -1, -1, 1, -1, -1, -1, -1, -1, 1, -1, -1, -1, -1, 1, -1, -1, -1, -1, -1, -1, -1, -1, 1, -1, -1, -1, -1, -1, -1, -1, -1, -1, -1, -1, -1, -1, -1, -1, -1, -1, -1, -1, -1, -1, -1, -1, -1, -1, -1, -1, -1, -1, -1, -1, -1, -1, -1, -1, -1, 1, -1, 1, -1, -1, -1, -1, -1, -1, -1, -1, -1, -1, -1, -1, -1, -1, -1, -1, 1, -1, -1, -1, 1, -1, -1, -1, -1, -1, -1, -1, -1, -1, -1, -1, -1, -1, -1, -1, -1, -1, -1, -1, -1, -1, -1, -1, -1, -1, -1, -1, -1, -1, -1, 1, -1, -1, -1, -1, -1, -1, -1, -1, -1, -1, 1, -1, -1, -1, -1, -1, -1, -1, -1, -1, -1, -1, -1, -1, -1, -1, -1, -1, -1, -1, -1, -1, -1, -1, -1, -1, -1, -1, -1, -1, -1, -1, -1, -1, -1, -1, -1, -1, -1, -1, -1, -1, -1, -1, -1, -1, -1, -1, -1, -1, -1, -1, -1, -1, -1, -1, -1, -1, -1, -1, -1, -1, -1, -1, -1, -1, -1, -1, -1, -1, -1, -1, -1, -1, -1, -1, -1, -1, -1, -1, -1, -1, -1, -1, -1, -1, -1, -1, -1, -1, -1, -1, -1, -1, -1, -1, -1, -1, -1, -1, -1, -1, -1, -1, -1, -1, -1, -1, -1, -1, -1, -1, -1, -1, -1, -1, -1, -1, -1, -1, -1, -1, -1, -1, -1, -1, -1, -1, -1, -1, -1, -1, -1, -1, -1, -1, -1, -1, -1, -1, -1, -1, -1, -1, -1, -1, -1, -1, -1, -1, -1, -1, -1, -1, -1, -1, -1, -1, -1, -1, -1, -1, -1, -1, -1, -1, -1, -1, -1, -1, -1, -1, -1, -1, -1, -1, -1, -1, -1, -1, -1, -1, -1, -1, -1, -1, -1, -1, -1, -1, -1, -1, -1, -1, -1, -1, -1, -1, -1, -1, -1, -1, -1, -1, -1, -1, -1, -1, -1, -1, -1, -1, -1, -1, -1, -1, -1, -1, -1, -1, -1, -1, -1, -1, -1, -1, -1, -1, -1, -1, -1, -1, -1, -1, -1, -1, 1, -1, -1, -1, -1, -1, -1, -1, -1, -1, -1, -1, -1, -1, -1, -1, -1, -1, -1, -1, -1, -1, -1, -1, -1, -1, -1, -1, -1, -1, -1, -1, 1, -1, -1, -1, -1, -1, -1, -1, -1, -1, -1, -1, -1, 1, -1, -1, -1, -1, -1, 1, -1, -1, -1, -1, -1, -1, -1, -1, -1, -1, -1, -1, -1, -1, -1, -1, -1, 1, -1, -1, -1, -1, 1, -1, -1, -1, -1, -1, -1, 1, -1, -1, -1, -1, -1, -1, -1, -1, -1, -1, -1, -1, -1, -1, -1, -1, -1, 1, -1, -1, -1, -1, -1, -1, -1, -1, -1, -1, -1, -1, -1, -1, -1, -1, -1, -1, -1, -1, -1, -1, -1, -1, -1, -1, -1, -1, -1, -1, -1, -1, -1, -1, -1, -1, -1, -1, -1, -1, -1, -1, -1, -1, -1, -1, -1, -1, -1, -1, -1, -1, -1, -1, -1, -1, -1, -1, -1, -1, -1, -1, -1, -1, -1, -1, -1, -1, -1, -1, -1, -1, -1, -1, -1, -1, -1, -1, -1, -1, -1, -1, -1, -1, -1, -1, -1, -1, -1, -1, -1, -1, -1, -1, -1, -1, -1, -1, -1, -1, -1, -1, -1, -1, -1, 1, -1, -1, -1, -1, -1, -1, -1, -1, -1, -1, -1, 1, -1, -1, -1, -1, -1, -1, -1, -1, -1, -1, -1, -1, -1, -1, -1, -1, -1, -1, -1, -1, -1, -1, -1, -1, -1, -1, -1, -1, 1, -1, -1, -1, -1, -1, -1, -1, -1, -1, -1, -1, -1, -1, -1, -1, -1, -1, -1, -1, -1, -1, -1, 1, -1, -1, 1, -1, -1, -1, -1, -1, -1, -1, -1, -1, -1, -1, -1, -1, -1, -1, -1, -1, -1, -1, -1, -1, -1, -1, -1, -1, -1, -1, 1, -1, -1, -1, -1, -1, -1, -1, -1, -1, -1, -1, -1, -1, -1, -1, -1, -1, -1, -1, -1, -1, -1, -1, -1, -1, -1, -1, -1, -1, -1, 1, -1, -1, -1, -1, -1, -1, -1, -1, -1, -1, -1, -1, -1, -1, -1, -1, 1, -1, -1, -1, 1, -1, -1, -1, -1, -1, -1, -1, -1, -1, -1, -1, -1, -1, -1, -1, -1, -1, -1, -1, -1, -1, -1, -1, 1, -1, -1, -1, -1, -1, -1, -1, -1, -1, -1, -1, -1, -1, -1, -1, -1, -1, -1, -1, -1, -1, -1, -1, -1, -1, -1, -1, -1, -1, -1, -1, -1, -1, -1, -1, -1, -1, -1, -1, -1, -1, -1, 1, -1, -1, -1, -1, -1, -1, -1, -1, -1, -1, -1, -1, -1, -1, 1, -1, -1, -1, -1, -1, -1, -1, -1, -1, -1, -1, -1, -1, -1, 1, 1, -1, -1, -1, -1, -1, -1, -1, 1, -1, -1, -1, -1, -1, -1, -1, -1, -1, -1, -1, -1, -1, -1, 1, -1, 1, -1, -1, 1, -1, -1, -1, -1, -1, 1, -1, -1, -1, -1, -1, 1, -1, -1, -1, -1, -1, -1, -1, -1, -1, -1, -1, -1, -1, -1, -1, -1, -1, -1, -1, -1, -1, -1, -1, -1, 1, -1, -1, -1, -1, -1, -1, -1, -1, -1, -1, -1, -1, -1, -1, -1, -1, -1, -1, -1, -1, -1, -1, -1, -1, 1, -1, -1, -1, -1, -1, -1, -1, -1, -1, -1, -1, -1, -1, -1, -1, -1, -1, -1, -1, -1, -1, -1, -1, -1, -1, -1, -1, -1, -1, -1, -1, -1, -1, -1, 1, -1, -1, -1, -1, -1, -1, -1, -1, -1, -1, -1, -1, -1, -1, -1, -1, -1, -1, -1, -1, 1, -1, -1, -1, -1, 1, -1, -1, -1, -1, -1, -1, -1, -1, -1, -1, 1, -1, -1, -1, -1, -1, -1, -1, -1, -1, -1, -1, -1, -1, -1, -1, -1, -1, -1, -1, -1, -1, -1, -1, -1, -1, -1, -1, -1, -1, -1, -1, -1, -1, -1, -1, -1, -1, -1, -1, -1, -1, -1, -1, -1, -1, -1, -1, -1, -1, -1, -1, -1, -1, -1, -1, -1, -1, -1, -1, -1, -1, -1, -1, -1, -1, 1, -1, -1, -1, -1, -1, -1, -1, -1, -1, -1, -1, -1, -1, 1, -1, -1, -1, -1, -1, -1, -1, -1, -1, -1, -1, -1, -1, -1, -1, -1, -1, -1, -1, -1, -1, -1, -1, -1, -1, -1, -1, -1, -1, 1, -1, -1, -1, -1, -1, -1, -1, -1, -1, 1, -1, -1, -1, -1, -1, -1, -1, -1, -1, -1, -1, -1, -1, -1, -1, -1, -1, -1, -1, -1, -1, -1, -1, -1, -1, -1, -1, -1, 1, -1, -1, -1, -1, -1, -1, -1, -1, -1, -1, -1, 1, -1, -1, -1, -1, -1, -1, -1, -1, -1, -1, -1, 1, 1, -1, -1, -1, -1, -1, -1, -1, -1, -1, -1, -1, -1, -1, -1, -1, -1, -1, -1, -1, 1, -1, -1, 1, -1, -1, -1, -1, -1, -1, 1, -1, -1, -1, -1, -1, -1, -1, 1, -1, -1, -1, -1, -1, -1, -1, -1, 1, -1, -1, 1, -1, -1, -1, -1, -1, -1, -1, -1, -1, -1, -1, -1, -1, -1, -1, -1, -1, -1, -1, -1, -1, -1, -1, -1, -1, -1, -1, -1, -1, 1, -1, -1, -1, -1, -1, -1, -1, -1, -1, 1, -1, -1, -1, -1, -1, -1, -1, -1, -1, -1, -1, -1, -1, 1, -1, -1, -1, -1, -1, -1, -1, -1, -1, 1, -1, -1, -1, -1, -1, 1, -1, -1, -1, -1, -1, -1, -1, -1, 1, -1, -1, -1, -1, -1, -1, -1, -1, -1, -1, -1, -1, -1, -1, -1, -1, -1, 1, -1, -1, 1, -1, -1, -1, -1, -1, -1, -1, -1, -1, -1, -1, -1, -1, -1, -1, -1, -1, -1, -1, -1, -1, -1, 1, -1, -1, -1, -1, -1, -1, -1, -1, -1, -1, -1, -1, -1, -1, 1, -1, -1, -1, -1, -1, -1, -1, -1, -1, -1, -1, -1, -1, -1, -1, 1, -1, -1, -1, -1, -1, -1, -1, -1, -1, -1, -1, -1, -1, -1, -1, -1, -1, -1, -1, -1, -1, -1, -1, -1, -1, -1, -1, -1, -1, -1, -1, -1, -1, -1, -1, 1, -1, -1, -1, 1, -1, -1, -1, -1, -1, -1, -1, -1, -1, -1, -1, -1, -1, -1, -1, -1, 1, -1, -1, 1, -1, -1, -1, -1, -1, -1, -1, -1, -1, -1, -1, -1, -1, -1, -1, -1, -1, -1, -1, -1, -1, -1, -1, -1, -1, -1, -1, -1, -1, 1, -1, -1, -1, -1, 1, -1, -1, -1, -1, -1, -1, -1, 1, -1, -1, -1, -1, -1, -1, -1, -1, 1, -1, -1, -1, -1, -1, -1, -1, -1, -1, -1, -1, -1, -1, -1, -1, -1, -1, -1, -1, -1, -1, -1, -1, -1, -1, -1, 1, -1, -1, -1, -1, -1, -1, -1, -1, -1, -1, 1, -1, -1, -1, -1, -1, -1, -1, -1, -1, -1, -1, -1, -1, -1, -1, -1, -1, -1, -1, -1, -1, -1, -1, -1, -1, -1, -1, -1, -1, 1, -1, -1, -1, -1, -1, -1, -1, -1, -1, -1, -1, -1, -1, -1, -1, -1, -1, -1, 1, -1, -1, -1, -1, -1, -1, -1, -1, -1, -1, -1, -1, -1, -1, -1, -1, -1, -1, -1, -1, -1, -1, -1, -1, -1, -1, -1, -1, -1, -1, -1, -1, 1, -1, -1, -1, -1, -1, -1, -1, -1, 1, -1, -1, -1, -1, -1, 1, -1, -1, -1, -1, -1, -1, -1, -1, -1, -1, -1, -1, -1, -1, -1, -1, -1, -1, -1, -1, -1, -1, -1, 1, -1, -1, -1, -1, -1, 1, -1, -1, -1, -1, -1, -1, 1, -1, 1, -1, -1, -1, -1, -1, -1, -1, -1, -1, -1, -1, -1, -1, -1, -1, -1, -1, -1, -1, -1, -1, 1, -1, -1, -1, -1, -1, -1, -1, -1, -1, -1, -1, -1, -1, -1, -1, -1, -1, -1, -1, -1, -1, -1, -1, -1, -1, -1, -1, -1, -1, -1, -1, -1, -1, -1, -1, -1, -1, -1, -1, -1, -1, -1, -1, 1, -1, -1, -1, -1, -1, -1, -1, -1, -1, -1, -1, -1, -1, -1, -1, -1, -1, -1, -1, -1, -1, -1, -1, -1, -1, -1, -1, -1, -1, -1, -1, -1, -1, -1, -1, -1, -1, -1, -1, -1, -1, -1, 1, -1, -1, -1, -1, -1, -1, -1, -1, -1, -1, -1, -1, -1, -1, -1, -1, -1, -1, -1, -1, -1, -1, -1, -1, -1, -1, -1, -1, 1, -1, -1, -1, -1, -1, -1, -1, -1, -1, -1, -1, -1, 1, -1, -1, -1, -1, -1, -1, -1, -1, -1, -1, -1, -1, -1, -1, -1, -1, -1, -1, -1, -1, -1, -1, -1, -1, -1, -1, -1, -1, -1, -1, -1, -1, -1, -1, -1, -1, -1, -1, -1, -1, -1, -1, 1, -1, -1, -1, -1, -1, -1, -1, -1, -1, -1, -1, -1, -1, -1, -1, -1, -1, -1, -1, -1, -1, -1, -1, -1, -1, -1, 1, -1, -1, 1, -1, -1, -1, -1, -1, -1, -1, -1, -1, -1, -1, -1, -1, -1, -1, -1, -1, -1, -1, -1, 1, -1, -1, -1, -1, -1, -1, -1, -1, -1, -1, -1, -1, -1, -1, -1, -1, -1, -1, -1, -1, -1, -1, -1, -1, -1, -1, -1, -1, -1, -1, -1, -1, -1, -1, -1, -1, -1, -1, -1, -1, -1, -1, -1, -1, -1, -1, -1, -1, -1, -1, -1, -1, -1, -1, -1, -1, -1, -1, -1, -1, -1, -1, -1, -1, -1, -1, -1, -1, -1, -1, -1, -1, -1, -1, -1, -1, -1, -1, -1, -1, 1, -1, -1, -1, -1, -1, -1, -1, -1, -1, -1, -1, -1, -1, -1, -1, -1, -1, -1, -1, -1, -1, -1, -1, -1, -1, -1, -1, -1, -1, -1, -1, -1, -1, -1, -1, -1, -1, -1, -1, -1, -1, -1, -1, -1, -1, -1, -1, -1, -1, -1, -1, -1, -1, -1, -1, -1, -1, -1, -1, -1, -1, -1, -1, -1, -1, -1, -1, 1, -1, -1, -1, -1, -1, -1, -1, -1, -1, -1, -1, -1, -1, -1, -1, -1, -1, -1, -1, -1, -1, -1, -1, -1, -1, -1, -1, -1, -1, -1, -1, -1, -1, -1, -1, -1, -1, -1, -1, -1, -1, -1, -1, -1, -1, -1, -1, -1, -1, -1, -1, -1, -1, -1, -1, -1, -1, -1, -1, -1, -1, -1, -1, -1, -1, -1, -1, -1, 1, -1, -1, -1, -1, -1, -1, -1, -1, -1, -1, 1, 1, -1, 1, -1, -1, -1, -1, -1, -1, -1, -1, -1, -1, -1, -1, 1, -1, -1, -1, -1, -1, -1, -1, -1, -1, -1, -1, -1, -1, -1, -1, -1, 1, -1, -1, -1, -1, -1, 1, -1, 1, -1, -1, -1, -1, -1, -1, 1, -1, 1, 1, -1, 1, -1, 1, -1, -1, 1, -1, -1, 1, -1, -1, -1, -1, -1, 1, -1, 1, -1, -1, 1, -1, -1
BQP_DATA, 5387, 25280, -10109.000000, -16989.000000, -32184.000000, -39064.000000, 8192.006953, 7609, 160
